StringID   Type       x          y          demand     ReadyTime  DueDate    ServiceTime
D0         d              20.448    15.026      0.000      0.000     23.983      0.000
S0         f              20.448    15.026      0.000      0.000     23.983      0.000
S1         f              91.550    18.300      0.000      0.000     23.983      0.000
S2         f              28.380    51.710      0.000      0.000     23.983      0.000
C0         c              57.781    79.654      0.005     11.215     11.670      0.053
C1         c              52.271    18.401      0.004     17.314     17.817      0.052
C2         c              91.351    -1.896      0.084     17.923     18.492      0.092
C3         c               5.881    77.680      0.066     17.224     17.698      0.083
C4         c              67.860    55.533      0.019     14.070     14.643      0.059

Q Vehicle fuel tank capacity /121.5600/
C Vehicle load capacity /1.1600/
r fuel consumption rate /0.4263/
g inverse refueling rate /0.0074/
v average Velocity /36.4400/
gv charging speed /134.6100/

--------------------
instance_id /979/
number of clusters /3/
working_startTime (hour) /8.00/
working_endTime (hour) /20.72/
instance_endTime (hour) /23.98/
service_time_type /cargoweight/
demand_type /20_80/
instance_type /RC/
instance x range /[0.0, 100.0]/
instance y range /[0.0, 100.0]/
cs_time_to_depot (hour)/[1.953274924465062,1.0299602896998694]/
